p tw 47 52
1 2
2 13
3 4
4 5
5 6
5 8
6 7
7 46
8 9
9 10
10 11
11 12
12 14
12 36
13 24
13 25
14 15
15 16
16 17
17 18
17 21
18 19
19 20
20 15
21 22
22 23
23 36
24 35
25 26
26 27
27 28
28 29
29 30
30 31
31 32
32 33
32 36
33 34
34 36
35 43
36 37
37 38
38 39
39 40
40 41
41 42
43 44
44 45
45 46
46 47
47 3
47 8
